 11  10
 8	 1	9	6	2	3	1	7	6	3	3	6	4	3	5	5	7	7	0	2
 5	 8	0	10	4	10	1	10	3	10	7	4	6	7	2	1	8	2	9	4
 3	 5	5	8	4	1	1	9	9	1	2	7	8	9	0	4	6	11	7	3
 5	 5	2	5	9	8	1	3	4	8	0	9	3	10	8	1	6	5	7	7
 6	 9	4	5	3	3	7	4	2	3	8	1	0	11	1	1	9	6	5	10
 5	 3	8	9	4	4	2	10	6	4	9	1	0	8	1	3	7	3	3	8
 0	 2	1	5	3	10	8	6	6	10	9	5	5	7	7	2	2	8	4	11
 6	 1	8	9	1	9	3	7	2	9	4	6	9	9	7	5	0	6	5	8
 3	 6	4	6	1	8	0	6	2	8	6	3	7	10	8	3	9	9	5	9
 2	 7	3	9	5	7	7	5	9	7	1	8	6	10	0	1	4	3	8	5
 10	 0	10	0	11	0	11	0	11	0	11	0	11	0	11	0	11	0	11	0
